Version identifier: 22.1.0.0 | 2022-03-09 | 1a383f8ce
CPXPARAM_Read_DataCheck                          1
CPXPARAM_Threads                                 1
CPXPARAM_TimeLimit                               3600
Tried aggregator 2 times.
MIP Presolve eliminated 437 rows and 36 columns.
MIP Presolve modified 4001 coefficients.
Aggregator did 33 substitutions.
Reduced MIP has 961 rows, 171 columns, and 6046 nonzeros.
Reduced MIP has 120 binaries, 0 generals, 0 SOSs, and 0 indicators.
Presolve time = 0.02 sec. (11.13 ticks)
Found incumbent of value 269.464171 after 0.02 sec. (15.33 ticks)
Probing fixed 3 vars, tightened 0 bounds.
Probing time = 0.00 sec. (2.06 ticks)
Tried aggregator 1 time.
Detecting symmetries...
MIP Presolve eliminated 6 rows and 3 columns.
Reduced MIP has 955 rows, 168 columns, and 5973 nonzeros.
Reduced MIP has 117 binaries, 0 generals, 0 SOSs, and 0 indicators.
Presolve time = 0.01 sec. (2.91 ticks)
Probing time = 0.00 sec. (1.88 ticks)
Clique table members: 309.
MIP emphasis: balance optimality and feasibility.
MIP search method: dynamic search.
Parallel mode: none, using 1 thread.
Root relaxation solution time = 0.01 sec. (2.95 ticks)

        Nodes                                         Cuts/
   Node  Left     Objective  IInf  Best Integer    Best Bound    ItCnt     Gap

*     0+    0                          269.4642      138.4413            48.62%
      0     0      138.4413    38      269.4642      138.4413       96   48.62%
      0     0      138.4413    20      269.4642      Cuts: 26      149   48.62%
      0     0      138.4413    33      269.4642     Cuts: 213      262   48.62%
      0     0      142.7606    42      269.4642     Cuts: 214      384   47.02%
      0     0      143.3024    19      269.4642     Cuts: 129      455   46.82%
      0     0      143.3544    28      269.4642      Cuts: 68      529   46.80%
Detecting symmetries...
      0     0      143.3544    26      269.4642      Cuts: 80      555   46.80%
*     0+    0                          266.3488      143.3544            46.18%
      0     0  -1.00000e+75     0      266.3488      143.3544      555   46.18%
Detecting symmetries...
      0     2      143.3544    23      266.3488      143.6733      555   46.06%
Elapsed time = 0.21 sec. (142.12 ticks, tree = 0.01 MB, solutions = 2)
*    23    19      integral     0      176.3386      143.9690     1673   18.36%
*   178    86      integral     0      167.8350      147.6938     5134   12.00%
    222    98      163.0648    15      167.8350      148.9758     6500   11.24%
*   238    97      integral     0      165.7216      149.5271     6932    9.77%
    380    93      154.9364    15      165.7216      153.6098    11257    7.31%
    581    65        cutoff            165.7216      159.2773    16906    3.89%

GUB cover cuts applied:  12
Clique cuts applied:  32
Cover cuts applied:  23
Implied bound cuts applied:  62
Flow cuts applied:  1
Mixed integer rounding cuts applied:  52
Gomory fractional cuts applied:  2

Root node processing (before b&c):
  Real time             =    0.21 sec. (142.13 ticks)
Sequential b&c:
  Real time             =    0.94 sec. (804.33 ticks)
                          ------------
Total (root+branch&cut) =    1.15 sec. (946.46 ticks)
